NAME: random-36-31851
TYPE: TSP
COMMENT: size=36 seed=31851
DIMENSION: 74
EDGE_WEIGHT_TYPE: EUC_2D
NODE_COORD_SECTION
+0 757 616
-0 757 616
+1 487 294
-1 738 744
+2 981 169
-2 982 94
+3 543 395
-3 743 516
+4 5 864
-4 676 996
+5 694 341
-5 286 762
+6 263 382
-6 186 509
+7 313 634
-7 429 354
+8 439 600
-8 42 945
+9 79 275
-9 174 179
+10 321 7
-10 444 171
+11 838 190
-11 682 275
+12 252 507
-12 640 451
+13 777 212
-13 494 949
+14 612 419
-14 557 390
+15 764 123
-15 931 257
+16 676 652
-16 455 25
+17 39 827
-17 242 786
+18 610 128
-18 931 643
+19 376 171
-19 337 762
+20 63 523
-20 544 582
+21 829 948
-21 852 869
+22 850 851
-22 719 541
+23 295 426
-23 883 251
+24 441 893
-24 772 734
+25 240 106
-25 465 315
+26 875 729
-26 248 203
+27 960 885
-27 696 630
+28 387 535
-28 791 705
+29 906 477
-29 460 974
+30 254 992
-30 29 643
+31 313 392
-31 979 303
+32 739 551
-32 245 719
+33 946 505
-33 381 868
+34 146 659
-34 827 747
+35 725 971
-35 727 961
+36 823 997
-36 141 5
PRECEDENCE_SECTION
+0 -0
+1 -1
+2 -2
+3 -3
+4 -4
+5 -5
+6 -6
+7 -7
+8 -8
+9 -9
+10 -10
+11 -11
+12 -12
+13 -13
+14 -14
+15 -15
+16 -16
+17 -17
+18 -18
+19 -19
+20 -20
+21 -21
+22 -22
+23 -23
+24 -24
+25 -25
+26 -26
+27 -27
+28 -28
+29 -29
+30 -30
+31 -31
+32 -32
+33 -33
+34 -34
+35 -35
+36 -36
EOF
